Instance Name : rc103
Date : 2022-07-18
Solution
Route 1 : 61 39 36 37 38 41 68 55 70
Route 2 : 11 15 97 75 58 77
Route 3 : 20 18 48 21 23 22 49 19 25 24
Route 4 : 91 92 95 62 67 84 56 66
Route 5 : 69 88 53 9 10 16 13 82
Route 6 : 81 54 42 44 43 40 35 72 71 93
Route 7 : 90 65 83 64 99 87 59 74 86 57 52
Route 8 : 98 60 78 79 73 17 47 14 12
Route 9 : 94 33 76 89 63 85 51 80
Route 10 : 96 27 26 30 32 28 29 31 34 50
Route 11 : 2 45 46 8 7 6 4 5 3 1 100
